
Gurobi 9.5.0 (win64, Python) logging started Sun Oct  8 10:22:43 2023

Set parameter LogFile to value "data/medium_training_set/problems/problem_0016_gurobi.log_gurobi.log"
Restricted license - for non-production use only - expires 2023-10-25
